La8 Zr4 Se20                            
   1.00000000000000     
     7.7993557646516800    0.0000000000000000    0.0000000000000000
     0.0000000000000000    8.5989296432965894    0.0000000000000000
     0.0000000000000000    0.0000000000000000   12.1156569544453205
   La   Zr   Se
     8     4    20
Direct
  0.9446381699999975  0.0000000000000000  0.8273324900000034
  0.5553618300000025  0.4999847799999984  0.3273324900000034
  0.0553618300000025  0.5000152200000016  0.1726675099999966
  0.4446381699999975  0.0000000000000000  0.6726675099999966
  0.0553618300000025  0.0000000000000000  0.1726675099999966
  0.4446381699999975  0.5000152200000016  0.6726675099999966
  0.9446381699999975  0.4999847799999984  0.8273324900000034
  0.5553618300000025  0.0000000000000000  0.3273324900000034
  0.4249841900000035  0.7500000000000000  0.9904564599999972
  0.0750158099999965  0.7500000000000000  0.4904564599999972
  0.5750158099999965  0.2500000000000000  0.0095435400000028
  0.9249841900000035  0.2500000000000000  0.5095435400000028
  0.8239377900000022  0.9640895599999979  0.5755366499999965
  0.6760622099999978  0.5359104400000021  0.0755366499999965
  0.1760622099999978  0.4640895599999979  0.4244633500000035
  0.3239377900000022  0.0359104400000021  0.9244633500000035
  0.1760622099999978  0.0359104400000021  0.4244633500000035
  0.3239377900000022  0.4640895599999979  0.9244633500000035
  0.8239377900000022  0.5359104400000021  0.5755366499999965
  0.6760622099999978  0.9640895599999979  0.0755366499999965
  0.6429283699999999  0.7500000000000000  0.8093379399999989
  0.8570716300000001  0.7500000000000000  0.3093379399999989
  0.3570716300000001  0.2500000000000000  0.1906620600000011
  0.1429283699999999  0.2500000000000000  0.6906620600000011
  0.4435260300000010  0.7500000000000000  0.4952788100000021
  0.0564739699999990  0.7500000000000000  0.9952788100000021
  0.5564739699999990  0.2500000000000000  0.5047211899999979
  0.9435260300000010  0.2500000000000000  0.0047211899999979
  0.1613152199999988  0.7500000000000000  0.7086850000000027
  0.3386847800000012  0.7500000000000000  0.2086850000000027
  0.8386847800000012  0.2500000000000000  0.2913149999999973
  0.6613152199999988  0.2500000000000000  0.7913149999999973
 
  0.00000000E+00  0.00000000E+00  0.00000000E+00
  0.00000000E+00  0.00000000E+00  0.00000000E+00
  0.00000000E+00  0.00000000E+00  0.00000000E+00
  0.00000000E+00  0.00000000E+00  0.00000000E+00
  0.00000000E+00  0.00000000E+00  0.00000000E+00
  0.00000000E+00  0.00000000E+00  0.00000000E+00
  0.00000000E+00  0.00000000E+00  0.00000000E+00
  0.00000000E+00  0.00000000E+00  0.00000000E+00
  0.00000000E+00  0.00000000E+00  0.00000000E+00
  0.00000000E+00  0.00000000E+00  0.00000000E+00
  0.00000000E+00  0.00000000E+00  0.00000000E+00
  0.00000000E+00  0.00000000E+00  0.00000000E+00
  0.00000000E+00  0.00000000E+00  0.00000000E+00
  0.00000000E+00  0.00000000E+00  0.00000000E+00
  0.00000000E+00  0.00000000E+00  0.00000000E+00
  0.00000000E+00  0.00000000E+00  0.00000000E+00
  0.00000000E+00  0.00000000E+00  0.00000000E+00
  0.00000000E+00  0.00000000E+00  0.00000000E+00
  0.00000000E+00  0.00000000E+00  0.00000000E+00
  0.00000000E+00  0.00000000E+00  0.00000000E+00
  0.00000000E+00  0.00000000E+00  0.00000000E+00
  0.00000000E+00  0.00000000E+00  0.00000000E+00
  0.00000000E+00  0.00000000E+00  0.00000000E+00
  0.00000000E+00  0.00000000E+00  0.00000000E+00
  0.00000000E+00  0.00000000E+00  0.00000000E+00
  0.00000000E+00  0.00000000E+00  0.00000000E+00
  0.00000000E+00  0.00000000E+00  0.00000000E+00
  0.00000000E+00  0.00000000E+00  0.00000000E+00
  0.00000000E+00  0.00000000E+00  0.00000000E+00
  0.00000000E+00  0.00000000E+00  0.00000000E+00
  0.00000000E+00  0.00000000E+00  0.00000000E+00
  0.00000000E+00  0.00000000E+00  0.00000000E+00
